
  22   10
  10   10   10   10   10   10   10   10   10   10

   0   0   0   0   0   0   0   0   0   0   0   6 2 5 7 8 9 21 
   1  10  10  10  10  10  10  10  10  10  10   2 12 3 
   1  10  10  10  10  10  10  10  10  10  10   3 19 11 4 
   1  10  10  10  10  10  10  10  10  10  10   4 20 17 16 6 
   1  10  10  10  10  10  10  10  10  10  10   4 19 17 16 6 
   7  10  10  10  10  10  10  10  10  10  10   4 18 14 13 10 
   1  10  10  10  10  10  10  10  10  10  10   3 17 15 12 
   5  10  10  10  10  10  10  10  10  10  10   3 19 16 13 
   9  10  10  10  10  10  10  10  10  10  10   1 11 
   9  10  10  10  10  10  10  10  10  10  10   1 15 
   8  10  10  10  10  10  10  10  10  10  10   1 14 
   3  10  10  10  10  10  10  10  10  10  10   1 13 
   8  10  10  10  10  10  10  10  10  10  10   1 22
   9  10  10  10  10  10  10  10  10  10  10   1 22
   5  10  10  10  10  10  10  10  10  10  10   1 22
   4  10  10  10  10  10  10  10  10  10  10   1 22
   4  10  10  10  10  10  10  10  10  10  10   1 22
   8  10  10  10  10  10  10  10  10  10  10   1 22
   9  10  10  10  10  10  10  10  10  10  10   1 22
   9  10  10  10  10  10  10  10  10  10  10   1 22
   8  10  10  10  10  10  10  10  10  10  10   1 22
   0   0   0   0   0   0   0   0   0   0   0   0 
